(set-logic BV) (define-fun origCir ((n141 Bool) (n107 Bool) (i_17 Bool) (n140 Bool)) Bool (and (xor (and n107 i_17) n141) n140)) (synth-fun skel ((n141 Bool) (n107 Bool) (i_17 Bool) (n140 Bool)) Bool) (declare-var n141 Bool) (declare-var n107 Bool) (declare-var i_17 Bool) (declare-var n140 Bool) (constraint (= (origCir n141 n107 i_17 n140) (skel n141 n107 i_17 n140))) (check-synth)
